************************************************************************
file with basedata            : mm50_.bas
initial value random generator: 432543405
************************************************************************
projects                      :  1
jobs (incl. supersource/sink ):  12
horizon                       :  77
RESOURCES
  - renewable                 :  2   R
  - nonrenewable              :  2   N
  - doubly constrained        :  0   D
************************************************************************
PROJECT INFORMATION:
pronr.  #jobs rel.date duedate tardcost  MPM-Time
    1     10      0       10        8       10
************************************************************************
PRECEDENCE RELATIONS:
jobnr.    #modes  #successors   successors
   1        1          3           2   3   4
   2        3          3           7   8   9
   3        3          3           5   6   8
   4        3          1           7
   5        3          1          11
   6        3          1           9
   7        3          1          10
   8        3          2          10  11
   9        3          1          12
  10        3          1          12
  11        3          1          12
  12        1          0        
************************************************************************
REQUESTS/DURATIONS:
jobnr. mode duration  R 1  R 2  N 1  N 2
------------------------------------------------------------------------
  1      1     0       0    0    0    0
  2      1     2       6    4    5    0
         2     4       5    4    0   10
         3     9       4    3    0    9
  3      1     2       7   10   10    0
         2     3       7    8    9    0
         3     5       6    6    9    0
  4      1     3       9    9    0    4
         2     7       8    8    0    3
         3     9       6    6    0    3
  5      1     1      10    2    6    0
         2     5       9    2    1    0
         3    10       6    1    0    9
  6      1     1       6    4    0   10
         2     6       6    4   10    0
         3     7       5    3    9    0
  7      1     3       6    9    2    0
         2     3       6    9    0    6
         3     6       5    8    0    5
  8      1     4      10    5    0    9
         2     4       8    7    8    0
         3     6       6    4    0    8
  9      1     2       2    9    0    9
         2     3       2    6    9    0
         3     9       2    4    0    9
 10      1     4       9    9    0   10
         2     7       8    4    0   10
         3     8       7    3    6    0
 11      1     1       3    4    6    0
         2     4       2    4    0    3
         3     8       2    4    6    0
 12      1     0       0    0    0    0
************************************************************************
RESOURCEAVAILABILITIES:
  R 1  R 2  N 1  N 2
   27   20   36   37
************************************************************************
MAXIMAL LAGS:
from  to  type  delay
    1   12   ES      0
    1    2   ES      0
    2   12   ES      0
    1    3   ES      0
    3   12   ES      0
    1    4   ES      0
    4   12   ES      0
    1    5   ES      0
    5   12   ES      0
    1    6   ES      0
    6   12   ES      0
    1    7   ES      0
    7   12   ES      0
    1    8   ES      0
    8   12   ES      0
    1    9   ES      0
    9   12   ES      0
    1   10   ES      0
   10   12   ES      0
    1   11   ES      0
   11   12   ES      0
    1   12   ES      0
    2    7   SS      8
    2    7   SE      2
    2    7   ES     -9
    2    7   EE     12
    2    8   SS     -7
    2    8   SE      3
    2    8   ES    -12
    2    8   EE     -2
    2    9   SS      4
    2    9   SE      3
    2    9   ES      3
    2    9   EE     -7
    3    5   SS     -7
    3    5   SE    -10
    3    5   ES     12
    3    5   EE      1
    3    6   SS      9
    3    6   SE     -3
    3    6   ES     -9
    3    6   EE      2
    3    8   SS     -2
    3    8   SE      8
    3    8   ES      9
    3    8   EE      5
    4    7   SS     -7
    4    7   SE     -6
    4    7   ES     12
    4    7   EE     -9
    5   11   SS     12
    5   11   SE     -5
    5   11   ES     -6
    5   11   EE     -3
    6    9   SS      4
    6    9   SE     -3
    6    9   ES     -2
    6    9   EE     12
    7   10   SS      4
    7   10   SE      3
    7   10   ES     -9
    7   10   EE      9
    8   10   SS     -3
    8   10   SE      7
    8   10   ES     -6
    8   10   EE      6
    8   11   SS      9
    8   11   SE     -8
    8   11   ES     -2
    8   11   EE     -7
************************************************************************
